8,8	0,0	11,4	17,5	0,0	0,0	0,0	0,0	0,0	6,3
5,2	12,9	0,0	12,4	13,6	0,0	0,0	18,4	0,0	0,0
0,0	0,0	8,2	0,0	7,2	11,1	0,0	0,0	13,0	0,0
17,7	0,0	13,1	0,0	0,0	0,0	10,8	0,0	0,0	0,0
0,0	16,2	0,0	17,6	14,3	0,0	0,0	19,8	0,0	0,0
0,0	18,6	19,0	0,0	7,1	9,5	0,0	0,0	12,2	0,0
0,0	16,6	0,0	7,6	0,0	0,0	10,0	0,0	0,0	15,7
5,6	0,0	9,7	0,0	0,0	0,0	0,0	0,0	0,0	16,7
0,0	8,3	0,0	12,7	19,6	0,0	0,0	18,1	0,0	0,0
0,0	0,0	5,2	0,0	0,0	11,1	19,6	0,0	0,0	12,6
									
4,5	4,5	3,1	3,7	3,2	4,7	2,6	3,7	4,1	3,0
